20 58 129
1 7 2
1 8 1
1 12 4
1 13 5
1 14 1
1 15 3
1 16 4
1 19 5
2 4 5
2 8 2
2 10 4
2 12 1
2 14 4
2 18 5
2 19 2
3 7 5
3 12 1
3 17 4
3 20 2
4 8 2
4 9 3
4 11 4
4 12 4
4 14 4
4 17 3
4 18 3
5 6 3
5 7 2
5 9 3
5 12 3
5 14 5
5 15 2
6 8 1
6 10 1
6 12 4
6 18 1
7 10 1
8 9 1
8 13 2
8 15 4
8 18 1
8 19 1
9 12 3
9 19 1
10 11 4
10 12 1
10 13 1
10 14 2
10 17 4
11 19 1
12 15 4
12 20 4
13 14 1
13 19 4
14 19 5
15 19 3
15 20 2
17 20 3
